proyfinal/src/viki/013/experimentInOfficeAgust.take6.output/d1e51b7d-9ae2-4f17-847b-d9fafcc863f5.als.dat
{'cnf.clauses': '118081',
 'cnf.totvars': '69608',
 'conflict literals': '49',
 'conflicts': '19',
 'decisions': '9161',
 'memused.mb': '14.84',
 'outcome': 'UNSAT',
 'propagations': '34633',
 'restarts': '1',
 'solver.msecs': 30,
 'task.msecs': 140}
