proyfinal/src/viki/013/experimentInOfficeAgust.take6.output/d1e51b7d-9ae2-4f17-847b-d9fafcc863f5.als.out
Reading from standard input... Use '--help' for help.
============================[ Problem Statistics ]=============================
|                                                                             |
|  Number of variables:         69608                                         |
|  Number of clauses:          118081                                         |
|  Parse time:                   0.02 s                                       |
|                                                                             |
============================[ Search Statistics ]==============================
| Conflicts |          ORIGINAL         |          LEARNT          | Progress |
|           |    Vars  Clauses Literals |    Limit  Clauses Lit/Cl |          |
===============================================================================
===============================================================================
restarts              : 1
conflicts             : 19             (632 /sec)
decisions             : 9161           (0.00 % random) (304808 /sec)
propagations          : 34633          (1152321 /sec)
conflict literals     : 49             (0.00 % deleted)
Memory used           : 14.84 MB
CPU time              : 0.030055 s

UNSATISFIABLE
